Version identifier: 12.10.0.0 | 2019-11-26 | 843d4de
CPXPARAM_WorkMem                                 28672
Tried aggregator 2 times.
MIP Presolve eliminated 24 rows and 0 columns.
MIP Presolve added 48 rows and 0 columns.
Aggregator did 60 substitutions.
Reduced MIP has 126 rows, 110 columns, and 502 nonzeros.
Reduced MIP has 110 binaries, 0 generals, 0 SOSs, and 0 indicators.
Presolve time = 0,00 sec. (1,12 ticks)
Found incumbent of value 475,000000 after 0,00 sec. (1,27 ticks)
Probing time = 0,00 sec. (0,75 ticks)
Tried aggregator 1 time.
Detecting symmetries...
Reduced MIP has 126 rows, 110 columns, and 502 nonzeros.
Reduced MIP has 110 binaries, 0 generals, 0 SOSs, and 0 indicators.
Presolve time = 0,00 sec. (0,45 ticks)
Probing time = 0,00 sec. (0,74 ticks)
Clique table members: 411.
MIP emphasis: balance optimality and feasibility.
MIP search method: dynamic search.
Parallel mode: deterministic, using up to 16 threads.
Root relaxation solution time = 0,00 sec. (0,27 ticks)

        Nodes                                         Cuts/
   Node  Left     Objective  IInf  Best Integer    Best Bound    ItCnt     Gap

*     0+    0                          475,0000        0,0000           100,00%
*     0+    0                          465,0000        0,0000           100,00%
*     0+    0                          439,0000        0,0000           100,00%
      0     0      264,0000   110      439,0000      264,0000       43   39,86%
*     0+    0                          410,0000      264,0000            35,61%
      0     0      300,4384   110      410,0000      Cuts: 99      105   26,72%
      0     0      310,9519   110      410,0000     Cuts: 130      144   24,16%
      0     0      312,8504   110      410,0000      Cuts: 91      164   23,70%
      0     0      313,7986   110      410,0000  Impl Bds: 21      166   23,46%
      0     0        cutoff            410,0000      410,0000      166    0,00%
Elapsed time = 0,03 sec. (22,13 ticks, tree = 0,01 MB, solutions = 4)

Clique cuts applied:  14
Cover cuts applied:  32
Implied bound cuts applied:  81
Flow cuts applied:  4
Mixed integer rounding cuts applied:  17
Gomory fractional cuts applied:  9

Root node processing (before b&c):
  Real time             =    0,03 sec. (22,14 ticks)
Parallel b&c, 16 threads:
  Real time             =    0,00 sec. (0,00 ticks)
  Sync time (average)   =    0,00 sec.
  Wait time (average)   =    0,00 sec.
                          ------------
Total (root+branch&cut) =    0,03 sec. (22,14 ticks)
